
Gurobi 6.5.1 (mac64) logging started Wed Apr 27 19:26:01 2016

Optimize a model with 0 rows, 12 columns and 0 nonzeros
Coefficient statistics:
  Matrix range    [0e+00, 0e+00]
  Objective range [1e+01, 7e+01]
  Bounds range    [1e+00, 1e+00]
  RHS range       [0e+00, 0e+00]
Found heuristic solution: objective 210
Presolve removed 0 rows and 12 columns
Presolve time: 0.00s
Presolve: All rows and columns removed

Explored 0 nodes (0 simplex iterations) in 0.00 seconds
Thread count was 1 (of 4 available processors)

Optimal solution found (tolerance 1.00e-04)
Best objective 2.100000000000e+02, best bound 2.100000000000e+02, gap 0.0%

Gurobi 6.5.1 (mac64) logging started Wed Apr 27 19:26:01 2016

Optimize a model with 1 rows, 12 columns and 4 nonzeros
Coefficient statistics:
  Matrix range    [1e+01, 2e+01]
  Objective range [0e+00, 0e+00]
  Bounds range    [1e+00, 1e+00]
  RHS range       [2e+01, 2e+01]
Found heuristic solution: objective 0
Presolve removed 1 rows and 12 columns
Presolve time: 0.00s
Presolve: All rows and columns removed

Explored 0 nodes (0 simplex iterations) in 0.00 seconds
Thread count was 1 (of 4 available processors)

Optimal solution found (tolerance 1.00e-04)
Best objective 0.000000000000e+00, best bound 0.000000000000e+00, gap 0.0%

Gurobi 6.5.1 (mac64) logging started Wed Apr 27 19:26:01 2016

Optimize a model with 1 rows, 12 columns and 8 nonzeros
Coefficient statistics:
  Matrix range    [1e+01, 4e+01]
  Objective range [0e+00, 0e+00]
  Bounds range    [1e+00, 1e+00]
  RHS range       [8e+01, 8e+01]
Found heuristic solution: objective 0
Presolve removed 1 rows and 12 columns
Presolve time: 0.00s
Presolve: All rows and columns removed

Explored 0 nodes (0 simplex iterations) in 0.00 seconds
Thread count was 1 (of 4 available processors)

Optimal solution found (tolerance 1.00e-04)
Best objective 0.000000000000e+00, best bound 0.000000000000e+00, gap 0.0%

Gurobi 6.5.1 (mac64) logging started Wed Apr 27 19:26:01 2016

Optimize a model with 1 rows, 12 columns and 4 nonzeros
Coefficient statistics:
  Matrix range    [1e+01, 2e+01]
  Objective range [0e+00, 0e+00]
  Bounds range    [1e+00, 1e+00]
  RHS range       [2e+01, 2e+01]
Found heuristic solution: objective 0
Presolve removed 1 rows and 12 columns
Presolve time: 0.00s
Presolve: All rows and columns removed

Explored 0 nodes (0 simplex iterations) in 0.00 seconds
Thread count was 1 (of 4 available processors)

Optimal solution found (tolerance 1.00e-04)
Best objective 0.000000000000e+00, best bound 0.000000000000e+00, gap 0.0%

Gurobi 6.5.1 (mac64) logging started Wed Apr 27 19:26:01 2016

Optimize a model with 1 rows, 12 columns and 8 nonzeros
Coefficient statistics:
  Matrix range    [1e+01, 4e+01]
  Objective range [0e+00, 0e+00]
  Bounds range    [1e+00, 1e+00]
  RHS range       [8e+01, 8e+01]
Found heuristic solution: objective 0
Presolve removed 1 rows and 12 columns
Presolve time: 0.00s
Presolve: All rows and columns removed

Explored 0 nodes (0 simplex iterations) in 0.00 seconds
Thread count was 1 (of 4 available processors)

Optimal solution found (tolerance 1.00e-04)
Best objective 0.000000000000e+00, best bound 0.000000000000e+00, gap 0.0%

Gurobi 6.5.1 (mac64) logging started Wed Apr 27 19:26:01 2016

Optimize a model with 1 rows, 12 columns and 4 nonzeros
Coefficient statistics:
  Matrix range    [1e+01, 2e+01]
  Objective range [0e+00, 0e+00]
  Bounds range    [1e+00, 1e+00]
  RHS range       [2e+01, 2e+01]
Found heuristic solution: objective 0
Presolve removed 1 rows and 12 columns
Presolve time: 0.00s
Presolve: All rows and columns removed

Explored 0 nodes (0 simplex iterations) in 0.00 seconds
Thread count was 1 (of 4 available processors)

Optimal solution found (tolerance 1.00e-04)
Best objective 0.000000000000e+00, best bound 0.000000000000e+00, gap 0.0%

Gurobi 6.5.1 (mac64) logging started Wed Apr 27 19:26:01 2016

Optimize a model with 1 rows, 12 columns and 8 nonzeros
Coefficient statistics:
  Matrix range    [1e+01, 4e+01]
  Objective range [0e+00, 0e+00]
  Bounds range    [1e+00, 1e+00]
  RHS range       [8e+01, 8e+01]
Found heuristic solution: objective 0
Presolve removed 1 rows and 12 columns
Presolve time: 0.00s
Presolve: All rows and columns removed

Explored 0 nodes (0 simplex iterations) in 0.00 seconds
Thread count was 1 (of 4 available processors)

Optimal solution found (tolerance 1.00e-04)
Best objective 0.000000000000e+00, best bound 0.000000000000e+00, gap 0.0%

Gurobi 6.5.1 (mac64) logging started Wed Apr 27 19:26:01 2016

Optimize a model with 1 rows, 12 columns and 4 nonzeros
Coefficient statistics:
  Matrix range    [1e+01, 2e+01]
  Objective range [0e+00, 0e+00]
  Bounds range    [1e+00, 1e+00]
  RHS range       [2e+01, 2e+01]
Found heuristic solution: objective 0
Presolve removed 1 rows and 12 columns
Presolve time: 0.00s
Presolve: All rows and columns removed

Explored 0 nodes (0 simplex iterations) in 0.00 seconds
Thread count was 1 (of 4 available processors)

Optimal solution found (tolerance 1.00e-04)
Best objective 0.000000000000e+00, best bound 0.000000000000e+00, gap 0.0%

Gurobi 6.5.1 (mac64) logging started Wed Apr 27 19:26:01 2016

Optimize a model with 1 rows, 12 columns and 8 nonzeros
Coefficient statistics:
  Matrix range    [1e+01, 4e+01]
  Objective range [0e+00, 0e+00]
  Bounds range    [1e+00, 1e+00]
  RHS range       [8e+01, 8e+01]
Found heuristic solution: objective 0
Presolve removed 1 rows and 12 columns
Presolve time: 0.00s
Presolve: All rows and columns removed

Explored 0 nodes (0 simplex iterations) in 0.00 seconds
Thread count was 1 (of 4 available processors)

Optimal solution found (tolerance 1.00e-04)
Best objective 0.000000000000e+00, best bound 0.000000000000e+00, gap 0.0%

Gurobi 6.5.1 (mac64) logging started Wed Apr 27 19:26:01 2016

Optimize a model with 1 rows, 12 columns and 4 nonzeros
Coefficient statistics:
  Matrix range    [1e+01, 2e+01]
  Objective range [0e+00, 0e+00]
  Bounds range    [1e+00, 1e+00]
  RHS range       [2e+01, 2e+01]
Found heuristic solution: objective 0
Presolve removed 1 rows and 12 columns
Presolve time: 0.00s
Presolve: All rows and columns removed

Explored 0 nodes (0 simplex iterations) in 0.00 seconds
Thread count was 1 (of 4 available processors)

Optimal solution found (tolerance 1.00e-04)
Best objective 0.000000000000e+00, best bound 0.000000000000e+00, gap 0.0%

Gurobi 6.5.1 (mac64) logging started Wed Apr 27 19:26:01 2016

Optimize a model with 1 rows, 12 columns and 8 nonzeros
Coefficient statistics:
  Matrix range    [1e+01, 4e+01]
  Objective range [0e+00, 0e+00]
  Bounds range    [1e+00, 1e+00]
  RHS range       [8e+01, 8e+01]
Found heuristic solution: objective 0
Presolve removed 1 rows and 12 columns
Presolve time: 0.00s
Presolve: All rows and columns removed

Explored 0 nodes (0 simplex iterations) in 0.00 seconds
Thread count was 1 (of 4 available processors)

Optimal solution found (tolerance 1.00e-04)
Best objective 0.000000000000e+00, best bound 0.000000000000e+00, gap 0.0%

Gurobi 6.5.1 (mac64) logging started Wed Apr 27 19:26:01 2016

Optimize a model with 1 rows, 12 columns and 4 nonzeros
Coefficient statistics:
  Matrix range    [1e+01, 2e+01]
  Objective range [0e+00, 0e+00]
  Bounds range    [1e+00, 1e+00]
  RHS range       [2e+01, 2e+01]
Found heuristic solution: objective 0
Presolve removed 1 rows and 12 columns
Presolve time: 0.00s
Presolve: All rows and columns removed

Explored 0 nodes (0 simplex iterations) in 0.00 seconds
Thread count was 1 (of 4 available processors)

Optimal solution found (tolerance 1.00e-04)
Best objective 0.000000000000e+00, best bound 0.000000000000e+00, gap 0.0%

Gurobi 6.5.1 (mac64) logging started Wed Apr 27 19:26:01 2016

Optimize a model with 1 rows, 12 columns and 8 nonzeros
Coefficient statistics:
  Matrix range    [1e+01, 4e+01]
  Objective range [0e+00, 0e+00]
  Bounds range    [1e+00, 1e+00]
  RHS range       [8e+01, 8e+01]
Found heuristic solution: objective 0
Presolve removed 1 rows and 12 columns
Presolve time: 0.00s
Presolve: All rows and columns removed

Explored 0 nodes (0 simplex iterations) in 0.00 seconds
Thread count was 1 (of 4 available processors)

Optimal solution found (tolerance 1.00e-04)
Best objective 0.000000000000e+00, best bound 0.000000000000e+00, gap 0.0%

Gurobi 6.5.1 (mac64) logging started Wed Apr 27 19:26:01 2016

Optimize a model with 1 rows, 12 columns and 4 nonzeros
Coefficient statistics:
  Matrix range    [1e+01, 2e+01]
  Objective range [0e+00, 0e+00]
  Bounds range    [1e+00, 1e+00]
  RHS range       [2e+01, 2e+01]
Found heuristic solution: objective 0
Presolve removed 1 rows and 12 columns
Presolve time: 0.00s
Presolve: All rows and columns removed

Explored 0 nodes (0 simplex iterations) in 0.00 seconds
Thread count was 1 (of 4 available processors)

Optimal solution found (tolerance 1.00e-04)
Best objective 0.000000000000e+00, best bound 0.000000000000e+00, gap 0.0%

Gurobi 6.5.1 (mac64) logging started Wed Apr 27 19:26:01 2016

Optimize a model with 1 rows, 12 columns and 8 nonzeros
Coefficient statistics:
  Matrix range    [1e+01, 4e+01]
  Objective range [0e+00, 0e+00]
  Bounds range    [1e+00, 1e+00]
  RHS range       [8e+01, 8e+01]
Found heuristic solution: objective 0
Presolve removed 1 rows and 12 columns
Presolve time: 0.00s
Presolve: All rows and columns removed

Explored 0 nodes (0 simplex iterations) in 0.00 seconds
Thread count was 1 (of 4 available processors)

Optimal solution found (tolerance 1.00e-04)
Best objective 0.000000000000e+00, best bound 0.000000000000e+00, gap 0.0%

Gurobi 6.5.1 (mac64) logging started Wed Apr 27 19:26:01 2016

Optimize a model with 1 rows, 12 columns and 4 nonzeros
Coefficient statistics:
  Matrix range    [1e+01, 2e+01]
  Objective range [0e+00, 0e+00]
  Bounds range    [1e+00, 1e+00]
  RHS range       [2e+01, 2e+01]
Found heuristic solution: objective 0
Presolve removed 1 rows and 12 columns
Presolve time: 0.00s
Presolve: All rows and columns removed

Explored 0 nodes (0 simplex iterations) in 0.00 seconds
Thread count was 1 (of 4 available processors)

Optimal solution found (tolerance 1.00e-04)
Best objective 0.000000000000e+00, best bound 0.000000000000e+00, gap 0.0%

Gurobi 6.5.1 (mac64) logging started Wed Apr 27 19:26:01 2016

Optimize a model with 1 rows, 12 columns and 8 nonzeros
Coefficient statistics:
  Matrix range    [1e+01, 4e+01]
  Objective range [0e+00, 0e+00]
  Bounds range    [1e+00, 1e+00]
  RHS range       [8e+01, 8e+01]
Found heuristic solution: objective 0
Presolve removed 1 rows and 12 columns
Presolve time: 0.00s
Presolve: All rows and columns removed

Explored 0 nodes (0 simplex iterations) in 0.00 seconds
Thread count was 1 (of 4 available processors)

Optimal solution found (tolerance 1.00e-04)
Best objective 0.000000000000e+00, best bound 0.000000000000e+00, gap 0.0%

Gurobi 6.5.1 (mac64) logging started Wed Apr 27 19:26:01 2016

Optimize a model with 1 rows, 12 columns and 4 nonzeros
Coefficient statistics:
  Matrix range    [1e+01, 2e+01]
  Objective range [0e+00, 0e+00]
  Bounds range    [1e+00, 1e+00]
  RHS range       [2e+01, 2e+01]
Found heuristic solution: objective 0
Presolve removed 1 rows and 12 columns
Presolve time: 0.00s
Presolve: All rows and columns removed

Explored 0 nodes (0 simplex iterations) in 0.00 seconds
Thread count was 1 (of 4 available processors)

Optimal solution found (tolerance 1.00e-04)
Best objective 0.000000000000e+00, best bound 0.000000000000e+00, gap 0.0%

Gurobi 6.5.1 (mac64) logging started Wed Apr 27 19:26:01 2016

Optimize a model with 1 rows, 12 columns and 8 nonzeros
Coefficient statistics:
  Matrix range    [1e+01, 4e+01]
  Objective range [0e+00, 0e+00]
  Bounds range    [1e+00, 1e+00]
  RHS range       [8e+01, 8e+01]
Found heuristic solution: objective 0
Presolve removed 1 rows and 12 columns
Presolve time: 0.00s
Presolve: All rows and columns removed

Explored 0 nodes (0 simplex iterations) in 0.00 seconds
Thread count was 1 (of 4 available processors)

Optimal solution found (tolerance 1.00e-04)
Best objective 0.000000000000e+00, best bound 0.000000000000e+00, gap 0.0%

Gurobi 6.5.1 (mac64) logging started Wed Apr 27 19:26:01 2016

Optimize a model with 1 rows, 12 columns and 4 nonzeros
Coefficient statistics:
  Matrix range    [1e+01, 2e+01]
  Objective range [0e+00, 0e+00]
  Bounds range    [1e+00, 1e+00]
  RHS range       [2e+01, 2e+01]
Found heuristic solution: objective 0
Presolve removed 1 rows and 12 columns
Presolve time: 0.00s
Presolve: All rows and columns removed

Explored 0 nodes (0 simplex iterations) in 0.00 seconds
Thread count was 1 (of 4 available processors)

Optimal solution found (tolerance 1.00e-04)
Best objective 0.000000000000e+00, best bound 0.000000000000e+00, gap 0.0%

Gurobi 6.5.1 (mac64) logging started Wed Apr 27 19:26:01 2016

Optimize a model with 1 rows, 12 columns and 8 nonzeros
Coefficient statistics:
  Matrix range    [1e+01, 4e+01]
  Objective range [0e+00, 0e+00]
  Bounds range    [1e+00, 1e+00]
  RHS range       [8e+01, 8e+01]
Found heuristic solution: objective 0
Presolve removed 1 rows and 12 columns
Presolve time: 0.00s
Presolve: All rows and columns removed

Explored 0 nodes (0 simplex iterations) in 0.00 seconds
Thread count was 1 (of 4 available processors)

Optimal solution found (tolerance 1.00e-04)
Best objective 0.000000000000e+00, best bound 0.000000000000e+00, gap 0.0%

Gurobi 6.5.1 (mac64) logging started Wed Apr 27 19:26:01 2016

Optimize a model with 1 rows, 12 columns and 4 nonzeros
Coefficient statistics:
  Matrix range    [1e+01, 2e+01]
  Objective range [0e+00, 0e+00]
  Bounds range    [1e+00, 1e+00]
  RHS range       [2e+01, 2e+01]
Found heuristic solution: objective 0
Presolve removed 1 rows and 12 columns
Presolve time: 0.00s
Presolve: All rows and columns removed

Explored 0 nodes (0 simplex iterations) in 0.00 seconds
Thread count was 1 (of 4 available processors)

Optimal solution found (tolerance 1.00e-04)
Best objective 0.000000000000e+00, best bound 0.000000000000e+00, gap 0.0%

Gurobi 6.5.1 (mac64) logging started Wed Apr 27 19:26:01 2016

Optimize a model with 1 rows, 12 columns and 8 nonzeros
Coefficient statistics:
  Matrix range    [1e+01, 4e+01]
  Objective range [0e+00, 0e+00]
  Bounds range    [1e+00, 1e+00]
  RHS range       [8e+01, 8e+01]
Found heuristic solution: objective 0
Presolve removed 1 rows and 12 columns
Presolve time: 0.00s
Presolve: All rows and columns removed

Explored 0 nodes (0 simplex iterations) in 0.00 seconds
Thread count was 1 (of 4 available processors)

Optimal solution found (tolerance 1.00e-04)
Best objective 0.000000000000e+00, best bound 0.000000000000e+00, gap 0.0%

Gurobi 6.5.1 (mac64) logging started Wed Apr 27 19:26:01 2016

Optimize a model with 1 rows, 12 columns and 4 nonzeros
Coefficient statistics:
  Matrix range    [1e+01, 2e+01]
  Objective range [0e+00, 0e+00]
  Bounds range    [1e+00, 1e+00]
  RHS range       [2e+01, 2e+01]
Found heuristic solution: objective 0
Presolve removed 1 rows and 12 columns
Presolve time: 0.00s
Presolve: All rows and columns removed

Explored 0 nodes (0 simplex iterations) in 0.00 seconds
Thread count was 1 (of 4 available processors)

Optimal solution found (tolerance 1.00e-04)
Best objective 0.000000000000e+00, best bound 0.000000000000e+00, gap 0.0%

Gurobi 6.5.1 (mac64) logging started Wed Apr 27 19:26:01 2016

Optimize a model with 1 rows, 12 columns and 8 nonzeros
Coefficient statistics:
  Matrix range    [1e+01, 4e+01]
  Objective range [0e+00, 0e+00]
  Bounds range    [1e+00, 1e+00]
  RHS range       [8e+01, 8e+01]
Found heuristic solution: objective 0
Presolve removed 1 rows and 12 columns
Presolve time: 0.00s
Presolve: All rows and columns removed

Explored 0 nodes (0 simplex iterations) in 0.00 seconds
Thread count was 1 (of 4 available processors)

Optimal solution found (tolerance 1.00e-04)
Best objective 0.000000000000e+00, best bound 0.000000000000e+00, gap 0.0%

Gurobi 6.5.1 (mac64) logging started Wed Apr 27 19:26:01 2016

Optimize a model with 1 rows, 12 columns and 4 nonzeros
Coefficient statistics:
  Matrix range    [1e+01, 2e+01]
  Objective range [0e+00, 0e+00]
  Bounds range    [1e+00, 1e+00]
  RHS range       [2e+01, 2e+01]
Found heuristic solution: objective 0
Presolve removed 1 rows and 12 columns
Presolve time: 0.00s
Presolve: All rows and columns removed

Explored 0 nodes (0 simplex iterations) in 0.00 seconds
Thread count was 1 (of 4 available processors)

Optimal solution found (tolerance 1.00e-04)
Best objective 0.000000000000e+00, best bound 0.000000000000e+00, gap 0.0%

Gurobi 6.5.1 (mac64) logging started Wed Apr 27 19:26:01 2016

Optimize a model with 1 rows, 12 columns and 8 nonzeros
Coefficient statistics:
  Matrix range    [1e+01, 4e+01]
  Objective range [0e+00, 0e+00]
  Bounds range    [1e+00, 1e+00]
  RHS range       [8e+01, 8e+01]
Found heuristic solution: objective 0
Presolve removed 1 rows and 12 columns
Presolve time: 0.00s
Presolve: All rows and columns removed

Explored 0 nodes (0 simplex iterations) in 0.00 seconds
Thread count was 1 (of 4 available processors)

Optimal solution found (tolerance 1.00e-04)
Best objective 0.000000000000e+00, best bound 0.000000000000e+00, gap 0.0%

Gurobi 6.5.1 (mac64) logging started Wed Apr 27 19:26:01 2016

Optimize a model with 1 rows, 12 columns and 4 nonzeros
Coefficient statistics:
  Matrix range    [1e+01, 2e+01]
  Objective range [0e+00, 0e+00]
  Bounds range    [1e+00, 1e+00]
  RHS range       [2e+01, 2e+01]
Found heuristic solution: objective 0
Presolve removed 1 rows and 12 columns
Presolve time: 0.00s
Presolve: All rows and columns removed

Explored 0 nodes (0 simplex iterations) in 0.00 seconds
Thread count was 1 (of 4 available processors)

Optimal solution found (tolerance 1.00e-04)
Best objective 0.000000000000e+00, best bound 0.000000000000e+00, gap 0.0%

Gurobi 6.5.1 (mac64) logging started Wed Apr 27 19:26:01 2016

Optimize a model with 1 rows, 12 columns and 8 nonzeros
Coefficient statistics:
  Matrix range    [1e+01, 4e+01]
  Objective range [0e+00, 0e+00]
  Bounds range    [1e+00, 1e+00]
  RHS range       [8e+01, 8e+01]
Found heuristic solution: objective 0
Presolve removed 1 rows and 12 columns
Presolve time: 0.00s
Presolve: All rows and columns removed

Explored 0 nodes (0 simplex iterations) in 0.00 seconds
Thread count was 1 (of 4 available processors)

Optimal solution found (tolerance 1.00e-04)
Best objective 0.000000000000e+00, best bound 0.000000000000e+00, gap 0.0%

Gurobi 6.5.1 (mac64) logging started Wed Apr 27 19:26:01 2016

Optimize a model with 1 rows, 12 columns and 4 nonzeros
Coefficient statistics:
  Matrix range    [1e+01, 2e+01]
  Objective range [0e+00, 0e+00]
  Bounds range    [1e+00, 1e+00]
  RHS range       [2e+01, 2e+01]
Found heuristic solution: objective 0
Presolve removed 1 rows and 12 columns
Presolve time: 0.00s
Presolve: All rows and columns removed

Explored 0 nodes (0 simplex iterations) in 0.00 seconds
Thread count was 1 (of 4 available processors)

Optimal solution found (tolerance 1.00e-04)
Best objective 0.000000000000e+00, best bound 0.000000000000e+00, gap 0.0%

Gurobi 6.5.1 (mac64) logging started Wed Apr 27 19:26:01 2016

Optimize a model with 1 rows, 12 columns and 8 nonzeros
Coefficient statistics:
  Matrix range    [1e+01, 4e+01]
  Objective range [0e+00, 0e+00]
  Bounds range    [1e+00, 1e+00]
  RHS range       [8e+01, 8e+01]
Found heuristic solution: objective 0
Presolve removed 1 rows and 12 columns
Presolve time: 0.00s
Presolve: All rows and columns removed

Explored 0 nodes (0 simplex iterations) in 0.00 seconds
Thread count was 1 (of 4 available processors)

Optimal solution found (tolerance 1.00e-04)
Best objective 0.000000000000e+00, best bound 0.000000000000e+00, gap 0.0%

Gurobi 6.5.1 (mac64) logging started Wed Apr 27 19:26:01 2016

Optimize a model with 1 rows, 12 columns and 4 nonzeros
Coefficient statistics:
  Matrix range    [1e+01, 2e+01]
  Objective range [0e+00, 0e+00]
  Bounds range    [1e+00, 1e+00]
  RHS range       [2e+01, 2e+01]
Found heuristic solution: objective 0
Presolve removed 1 rows and 12 columns
Presolve time: 0.00s
Presolve: All rows and columns removed

Explored 0 nodes (0 simplex iterations) in 0.00 seconds
Thread count was 1 (of 4 available processors)

Optimal solution found (tolerance 1.00e-04)
Best objective 0.000000000000e+00, best bound 0.000000000000e+00, gap 0.0%

Gurobi 6.5.1 (mac64) logging started Wed Apr 27 19:26:01 2016

Optimize a model with 1 rows, 12 columns and 8 nonzeros
Coefficient statistics:
  Matrix range    [1e+01, 4e+01]
  Objective range [0e+00, 0e+00]
  Bounds range    [1e+00, 1e+00]
  RHS range       [8e+01, 8e+01]
Found heuristic solution: objective 0
Presolve removed 1 rows and 12 columns
Presolve time: 0.00s
Presolve: All rows and columns removed

Explored 0 nodes (0 simplex iterations) in 0.00 seconds
Thread count was 1 (of 4 available processors)

Optimal solution found (tolerance 1.00e-04)
Best objective 0.000000000000e+00, best bound 0.000000000000e+00, gap 0.0%

Gurobi 6.5.1 (mac64) logging started Wed Apr 27 19:26:01 2016

Optimize a model with 1 rows, 12 columns and 4 nonzeros
Coefficient statistics:
  Matrix range    [1e+01, 2e+01]
  Objective range [0e+00, 0e+00]
  Bounds range    [1e+00, 1e+00]
  RHS range       [2e+01, 2e+01]
Found heuristic solution: objective 0
Presolve removed 1 rows and 12 columns
Presolve time: 0.00s
Presolve: All rows and columns removed

Explored 0 nodes (0 simplex iterations) in 0.00 seconds
Thread count was 1 (of 4 available processors)

Optimal solution found (tolerance 1.00e-04)
Best objective 0.000000000000e+00, best bound 0.000000000000e+00, gap 0.0%

Gurobi 6.5.1 (mac64) logging started Wed Apr 27 19:26:01 2016

Optimize a model with 1 rows, 12 columns and 8 nonzeros
Coefficient statistics:
  Matrix range    [1e+01, 4e+01]
  Objective range [0e+00, 0e+00]
  Bounds range    [1e+00, 1e+00]
  RHS range       [8e+01, 8e+01]
Found heuristic solution: objective 0
Presolve removed 1 rows and 12 columns
Presolve time: 0.00s
Presolve: All rows and columns removed

Explored 0 nodes (0 simplex iterations) in 0.00 seconds
Thread count was 1 (of 4 available processors)

Optimal solution found (tolerance 1.00e-04)
Best objective 0.000000000000e+00, best bound 0.000000000000e+00, gap 0.0%

Gurobi 6.5.1 (mac64) logging started Wed Apr 27 19:26:01 2016

Optimize a model with 1 rows, 12 columns and 4 nonzeros
Coefficient statistics:
  Matrix range    [1e+01, 2e+01]
  Objective range [0e+00, 0e+00]
  Bounds range    [1e+00, 1e+00]
  RHS range       [2e+01, 2e+01]
Found heuristic solution: objective 0
Presolve removed 1 rows and 12 columns
Presolve time: 0.00s
Presolve: All rows and columns removed

Explored 0 nodes (0 simplex iterations) in 0.00 seconds
Thread count was 1 (of 4 available processors)

Optimal solution found (tolerance 1.00e-04)
Best objective 0.000000000000e+00, best bound 0.000000000000e+00, gap 0.0%

Gurobi 6.5.1 (mac64) logging started Wed Apr 27 19:26:01 2016

Optimize a model with 1 rows, 12 columns and 8 nonzeros
Coefficient statistics:
  Matrix range    [1e+01, 4e+01]
  Objective range [0e+00, 0e+00]
  Bounds range    [1e+00, 1e+00]
  RHS range       [8e+01, 8e+01]
Found heuristic solution: objective 0
Presolve removed 1 rows and 12 columns
Presolve time: 0.00s
Presolve: All rows and columns removed

Explored 0 nodes (0 simplex iterations) in 0.00 seconds
Thread count was 1 (of 4 available processors)

Optimal solution found (tolerance 1.00e-04)
Best objective 0.000000000000e+00, best bound 0.000000000000e+00, gap 0.0%

Gurobi 6.5.1 (mac64) logging started Wed Apr 27 19:26:01 2016

Optimize a model with 1 rows, 12 columns and 4 nonzeros
Coefficient statistics:
  Matrix range    [1e+01, 2e+01]
  Objective range [0e+00, 0e+00]
  Bounds range    [1e+00, 1e+00]
  RHS range       [2e+01, 2e+01]
Found heuristic solution: objective 0
Presolve removed 1 rows and 12 columns
Presolve time: 0.00s
Presolve: All rows and columns removed

Explored 0 nodes (0 simplex iterations) in 0.00 seconds
Thread count was 1 (of 4 available processors)

Optimal solution found (tolerance 1.00e-04)
Best objective 0.000000000000e+00, best bound 0.000000000000e+00, gap 0.0%

Gurobi 6.5.1 (mac64) logging started Wed Apr 27 19:26:01 2016

Optimize a model with 1 rows, 12 columns and 8 nonzeros
Coefficient statistics:
  Matrix range    [1e+01, 4e+01]
  Objective range [0e+00, 0e+00]
  Bounds range    [1e+00, 1e+00]
  RHS range       [8e+01, 8e+01]
Found heuristic solution: objective 0
Presolve removed 1 rows and 12 columns
Presolve time: 0.00s
Presolve: All rows and columns removed

Explored 0 nodes (0 simplex iterations) in 0.00 seconds
Thread count was 1 (of 4 available processors)

Optimal solution found (tolerance 1.00e-04)
Best objective 0.000000000000e+00, best bound 0.000000000000e+00, gap 0.0%

Gurobi 6.5.1 (mac64) logging started Wed Apr 27 19:26:01 2016

Optimize a model with 1 rows, 12 columns and 4 nonzeros
Coefficient statistics:
  Matrix range    [1e+01, 2e+01]
  Objective range [0e+00, 0e+00]
  Bounds range    [1e+00, 1e+00]
  RHS range       [2e+01, 2e+01]
Found heuristic solution: objective 0
Presolve removed 1 rows and 12 columns
Presolve time: 0.00s
Presolve: All rows and columns removed

Explored 0 nodes (0 simplex iterations) in 0.00 seconds
Thread count was 1 (of 4 available processors)

Optimal solution found (tolerance 1.00e-04)
Best objective 0.000000000000e+00, best bound 0.000000000000e+00, gap 0.0%

Gurobi 6.5.1 (mac64) logging started Wed Apr 27 19:26:01 2016

Optimize a model with 1 rows, 12 columns and 8 nonzeros
Coefficient statistics:
  Matrix range    [1e+01, 4e+01]
  Objective range [0e+00, 0e+00]
  Bounds range    [1e+00, 1e+00]
  RHS range       [8e+01, 8e+01]
Found heuristic solution: objective 0
Presolve removed 1 rows and 12 columns
Presolve time: 0.00s
Presolve: All rows and columns removed

Explored 0 nodes (0 simplex iterations) in 0.00 seconds
Thread count was 1 (of 4 available processors)

Optimal solution found (tolerance 1.00e-04)
Best objective 0.000000000000e+00, best bound 0.000000000000e+00, gap 0.0%

Gurobi 6.5.1 (mac64) logging started Wed Apr 27 19:26:01 2016

Optimize a model with 1 rows, 12 columns and 4 nonzeros
Coefficient statistics:
  Matrix range    [1e+01, 2e+01]
  Objective range [0e+00, 0e+00]
  Bounds range    [1e+00, 1e+00]
  RHS range       [2e+01, 2e+01]
Found heuristic solution: objective 0
Presolve removed 1 rows and 12 columns
Presolve time: 0.00s
Presolve: All rows and columns removed

Explored 0 nodes (0 simplex iterations) in 0.00 seconds
Thread count was 1 (of 4 available processors)

Optimal solution found (tolerance 1.00e-04)
Best objective 0.000000000000e+00, best bound 0.000000000000e+00, gap 0.0%

Gurobi 6.5.1 (mac64) logging started Wed Apr 27 19:26:01 2016

Optimize a model with 1 rows, 12 columns and 8 nonzeros
Coefficient statistics:
  Matrix range    [1e+01, 4e+01]
  Objective range [0e+00, 0e+00]
  Bounds range    [1e+00, 1e+00]
  RHS range       [8e+01, 8e+01]
Found heuristic solution: objective 0
Presolve removed 1 rows and 12 columns
Presolve time: 0.00s
Presolve: All rows and columns removed

Explored 0 nodes (0 simplex iterations) in 0.00 seconds
Thread count was 1 (of 4 available processors)

Optimal solution found (tolerance 1.00e-04)
Best objective 0.000000000000e+00, best bound 0.000000000000e+00, gap 0.0%

Gurobi 6.5.1 (mac64) logging started Wed Apr 27 19:26:01 2016

Optimize a model with 1 rows, 12 columns and 4 nonzeros
Coefficient statistics:
  Matrix range    [1e+01, 2e+01]
  Objective range [0e+00, 0e+00]
  Bounds range    [1e+00, 1e+00]
  RHS range       [2e+01, 2e+01]
Found heuristic solution: objective 0
Presolve removed 1 rows and 12 columns
Presolve time: 0.00s
Presolve: All rows and columns removed

Explored 0 nodes (0 simplex iterations) in 0.00 seconds
Thread count was 1 (of 4 available processors)

Optimal solution found (tolerance 1.00e-04)
Best objective 0.000000000000e+00, best bound 0.000000000000e+00, gap 0.0%

Gurobi 6.5.1 (mac64) logging started Wed Apr 27 19:26:01 2016

Optimize a model with 1 rows, 12 columns and 8 nonzeros
Coefficient statistics:
  Matrix range    [1e+01, 4e+01]
  Objective range [0e+00, 0e+00]
  Bounds range    [1e+00, 1e+00]
  RHS range       [8e+01, 8e+01]
Found heuristic solution: objective 0
Presolve removed 1 rows and 12 columns
Presolve time: 0.00s
Presolve: All rows and columns removed

Explored 0 nodes (0 simplex iterations) in 0.00 seconds
Thread count was 1 (of 4 available processors)

Optimal solution found (tolerance 1.00e-04)
Best objective 0.000000000000e+00, best bound 0.000000000000e+00, gap 0.0%

Gurobi 6.5.1 (mac64) logging started Wed Apr 27 19:26:01 2016

Optimize a model with 1 rows, 12 columns and 4 nonzeros
Coefficient statistics:
  Matrix range    [1e+01, 2e+01]
  Objective range [0e+00, 0e+00]
  Bounds range    [1e+00, 1e+00]
  RHS range       [2e+01, 2e+01]
Found heuristic solution: objective 0
Presolve removed 1 rows and 12 columns
Presolve time: 0.00s
Presolve: All rows and columns removed

Explored 0 nodes (0 simplex iterations) in 0.00 seconds
Thread count was 1 (of 4 available processors)

Optimal solution found (tolerance 1.00e-04)
Best objective 0.000000000000e+00, best bound 0.000000000000e+00, gap 0.0%

Gurobi 6.5.1 (mac64) logging started Wed Apr 27 19:26:02 2016

Optimize a model with 1 rows, 12 columns and 8 nonzeros
Coefficient statistics:
  Matrix range    [1e+01, 4e+01]
  Objective range [0e+00, 0e+00]
  Bounds range    [1e+00, 1e+00]
  RHS range       [8e+01, 8e+01]
Found heuristic solution: objective 0
Presolve removed 1 rows and 12 columns
Presolve time: 0.00s
Presolve: All rows and columns removed

Explored 0 nodes (0 simplex iterations) in 0.00 seconds
Thread count was 1 (of 4 available processors)

Optimal solution found (tolerance 1.00e-04)
Best objective 0.000000000000e+00, best bound 0.000000000000e+00, gap 0.0%

Gurobi 6.5.1 (mac64) logging started Wed Apr 27 19:26:02 2016

Optimize a model with 1 rows, 12 columns and 4 nonzeros
Coefficient statistics:
  Matrix range    [1e+01, 2e+01]
  Objective range [0e+00, 0e+00]
  Bounds range    [1e+00, 1e+00]
  RHS range       [2e+01, 2e+01]
Found heuristic solution: objective 0
Presolve removed 1 rows and 12 columns
Presolve time: 0.00s
Presolve: All rows and columns removed

Explored 0 nodes (0 simplex iterations) in 0.00 seconds
Thread count was 1 (of 4 available processors)

Optimal solution found (tolerance 1.00e-04)
Best objective 0.000000000000e+00, best bound 0.000000000000e+00, gap 0.0%

Gurobi 6.5.1 (mac64) logging started Wed Apr 27 19:26:02 2016

Optimize a model with 1 rows, 12 columns and 8 nonzeros
Coefficient statistics:
  Matrix range    [1e+01, 4e+01]
  Objective range [0e+00, 0e+00]
  Bounds range    [1e+00, 1e+00]
  RHS range       [8e+01, 8e+01]
Found heuristic solution: objective 0
Presolve removed 1 rows and 12 columns
Presolve time: 0.00s
Presolve: All rows and columns removed

Explored 0 nodes (0 simplex iterations) in 0.00 seconds
Thread count was 1 (of 4 available processors)

Optimal solution found (tolerance 1.00e-04)
Best objective 0.000000000000e+00, best bound 0.000000000000e+00, gap 0.0%

Gurobi 6.5.1 (mac64) logging started Wed Apr 27 19:26:02 2016

Optimize a model with 1 rows, 12 columns and 4 nonzeros
Coefficient statistics:
  Matrix range    [1e+01, 2e+01]
  Objective range [0e+00, 0e+00]
  Bounds range    [1e+00, 1e+00]
  RHS range       [2e+01, 2e+01]
Found heuristic solution: objective 0
Presolve removed 1 rows and 12 columns
Presolve time: 0.00s
Presolve: All rows and columns removed

Explored 0 nodes (0 simplex iterations) in 0.00 seconds
Thread count was 1 (of 4 available processors)

Optimal solution found (tolerance 1.00e-04)
Best objective 0.000000000000e+00, best bound 0.000000000000e+00, gap 0.0%

Gurobi 6.5.1 (mac64) logging started Wed Apr 27 19:26:02 2016

Optimize a model with 1 rows, 12 columns and 8 nonzeros
Coefficient statistics:
  Matrix range    [1e+01, 4e+01]
  Objective range [0e+00, 0e+00]
  Bounds range    [1e+00, 1e+00]
  RHS range       [8e+01, 8e+01]
Found heuristic solution: objective 0
Presolve removed 1 rows and 12 columns
Presolve time: 0.00s
Presolve: All rows and columns removed

Explored 0 nodes (0 simplex iterations) in 0.00 seconds
Thread count was 1 (of 4 available processors)

Optimal solution found (tolerance 1.00e-04)
Best objective 0.000000000000e+00, best bound 0.000000000000e+00, gap 0.0%
